NAME: random_points
TYPE: TSP
DIMENSION: 40
EDGE_WEIGHT_TYPE: EUC_2D
NODE_COORD_SECTION
1 117 582
2 103 907
3 647 145
4 834 913
5 555 774
6 471 282
7 470 885
8 850 654
9 263 775
10 155 554
11 76 624
12 838 769
13 628 354
14 558 965
15 80 791
16 160 974
17 129 534
18 769 657
19 319 247
20 500 832
21 413 349
22 512 168
23 335 258
24 369 39
25 565 89
26 443 27
27 13 149
28 44 714
29 244 600
30 735 541
31 306 414
32 148 22
33 726 91
34 105 284
35 735 861
36 12 677
37 492 250
38 208 495
39 365 555
40 504 518
EOF
